0000000000000000
0000000000000000
0000001111110000
0001100000010000
0000000000001000
0000000000001000
0000000111010000
0000000101100000
0000000000100000
0000000000000000
0000000001000000
0000000001000000
0000000001000000
0000000001000000
0000000001000000
0000000000000000
